l=6250;
a=2;
setup_costs=[|0,2,
|3,1,
|0,0|];
setup_times=[|2,1,
|1,1,
|0,0|];
m=5;
min_cap=[0,0,0,0,0];
max_cap=[40,82,99,67,67];

initState=[2,2,1,1,2];
s=3;
m_a_s = [|630,3663,5865,
|0,258,1126,
|1481,3848,5576,
|0,1413,2750,
|854,1727,4421|];
m_a_e = [|3451,5579,6237,
|0,1122,5503,
|3802,5511,6208,
|0,2672,5842,
|1685,4115,6104|];
n=500;
eligible_machine = [{4,2},
{4,1},
{2,3,5},
{4,1,2,3,5},
{1,4},
{1},
{4,5},
{3,2,4,5},
{3,2,4},
{4,3,5},
{1,2,5},
{4,1},
{5,2,3,4},
{3,1},
{5,1,3,4},
{5,3,4},
{4,2,5},
{3,2,4},
{5,3,4},
{5,2,4},
{1,2,4},
{5,2,3,4},
{3,2,4,5},
{3,1,4,5},
{2,3,5},
{1,2,3},
{2,1,3,5},
{2,4,5},
{3,1,4,5},
{1,4},
{3,4,5},
{3,1},
{2,4},
{4},
{1,2,4},
{2},
{3,1,2,4,5},
{4},
{1},
{2,1,4,5},
{1,2,3},
{1,4},
{5,1,2},
{4,1,2,3},
{2,5},
{3,1,4,5},
{5,1,2},
{5,2},
{1,2,3,5},
{2,1,3,4},
{2,1,3,4},
{1,4,5},
{2,3},
{1,3,4,5},
{3,1,5},
{2,1,5},
{1,2,4},
{5,1,2,3},
{3,1,4,5},
{4,1,2,3,5},
{4,2,3,5},
{5,1,3},
{2,3,5},
{2,5},
{2},
{1,4,5},
{2,4},
{4,1,2,3,5},
{4,3},
{2,3,5},
{4,1},
{3,1,4,5},
{2,1,4},
{5,1,3,4},
{2,3,4,5},
{3,4},
{3,1},
{1},
{3,4,5},
{2,4,5},
{5,3},
{3,2,4},
{1,2,4,5},
{3,1,2},
{2,1,4},
{4,3,5},
{2,3,4},
{1,2,4},
{1,2,4,5},
{5,1,2,3,4},
{4,2,3},
{3,4,5},
{5,1,4},
{2,3,4},
{4,2,3,5},
{5,4},
{5,1,2},
{5,1,2,4},
{2,4,5},
{1,2,4,5},
{3,2,4,5},
{5,2,3,4},
{4,3},
{1,2,4,5},
{4,1,5},
{5,2},
{4,1,2,3},
{1,3,5},
{2,4,5},
{2,3,4},
{5,2,4},
{1,5},
{1,2,3,4,5},
{4,3,5},
{2,5},
{5,1,2,3},
{4,1,2,3,5},
{2},
{1,2,5},
{2,1,3,4},
{4,1,5},
{3,4},
{2,1,3},
{5,1,2,3},
{3,2},
{2,3,4},
{5,2,3},
{3,1,5},
{3},
{2,5},
{5,2},
{1,3},
{3,5},
{2,1,5},
{5,1},
{1,2,4},
{1,2,3,4,5},
{3,1,2,5},
{5,4},
{3,1,4},
{2,1,5},
{2,1,3,5},
{2,1},
{4,1,5},
{3,4,5},
{4},
{1,2,3,5},
{3,1,4},
{1,3,4,5},
{4,2,3},
{5,1,3},
{4,2,3},
{4,3},
{5,1,4},
{4,1,5},
{1,2,3,4},
{5,1,3},
{2,1,3},
{2,1,4},
{1,2,3,4},
{3,4},
{3,1,5},
{2,1,4},
{2,3,4},
{5,2},
{5,1,3},
{1,4},
{5,1,2,3,4},
{3,1,4},
{3,1,2,4,5},
{1,3,5},
{3,5},
{4,1,3,5},
{2,1,4},
{1,2,3},
{2,1,4},
{2,1,3},
{4,1},
{4,1,5},
{5},
{3,4},
{3,2,5},
{2,1,4},
{5,1,4},
{1,2,3,5},
{2,3,4},
{5,2,3,4},
{2,4},
{4,1,3,5},
{3,1},
{5},
{1,3,4},
{4,2},
{4,1,3,5},
{5,1,2,4},
{1,4},
{5,3},
{1,3},
{4,2,3,5},
{2,1,5},
{2,1,3},
{2,1,4,5},
{4,3},
{5,1,3,4},
{3,1},
{2,1,3,4,5},
{3},
{3,1,2,4,5},
{3,4},
{2,3},
{5,1,4},
{2,3},
{2,5},
{3,1,4},
{1,3},
{3,5},
{2,1,3,4},
{2,3,5},
{4},
{1,2,3},
{3,5},
{3,2,4},
{3,4},
{2,1,3},
{2,1,3,4,5},
{2,3},
{4,2,5},
{2,4},
{2,1,3,4},
{5,3},
{1,3,4,5},
{4,1,3},
{5,1,2,3},
{5,3,4},
{2,3,4,5},
{5,1,2,3},
{4,2,5},
{5,2,4},
{2,3,4,5},
{2,1,3},
{3,1,2,4,5},
{5,1,4},
{3,1,4},
{4,1,5},
{2,1,3},
{4,1,2,5},
{2,3,5},
{1,2,3},
{3,2},
{2,4},
{3,1,2},
{5,1,3},
{3,2,4,5},
{2,1,3},
{2,1,3,5},
{5,1},
{1,5},
{5,1,4},
{1,4},
{3,1,2,5},
{3,1},
{4,5},
{1,2,4,5},
{5,1,2,3},
{3,2,5},
{4,2,5},
{1,2,4},
{4,3},
{2,1,3,4},
{3,1,2,4},
{5,1,2},
{4,2,3},
{5,2},
{3,5},
{1,3,4},
{1,2,5},
{2,1,3,4,5},
{4,1,2,3,5},
{5,1,2,4},
{5,1,4},
{2,3,4,5},
{2,1,5},
{4,1,5},
{1,3},
{1,2},
{5,2,3},
{5,1,2,3,4},
{2,4,5},
{5,3},
{4,1,3},
{4,1,3,5},
{5,2},
{1,2,3,5},
{5,1,3,4},
{3,2,4},
{1,2,3,5},
{1,3},
{2,1,3,5},
{4,2,5},
{5,2,3},
{5,2,3,4},
{2,5},
{1,5},
{5,2,4},
{1,4},
{3,1,2,4,5},
{3,2,4},
{1,2,3,5},
{3,4},
{1,3,5},
{3,1,2,4},
{5,3},
{3,5},
{3,1,2,5},
{1,2,3,4,5},
{4,1,2,5},
{1,2,3},
{1,4,5},
{5,1,2,4},
{1,2,5},
{4,1,2,3,5},
{5,2},
{4,1},
{2,1},
{4,2,5},
{5,1},
{4,2,3},
{1,2,3,4,5},
{3,1,2,4,5},
{4},
{5,2,3},
{1,2,3,5},
{1,3,5},
{4,3},
{3,1,4,5},
{1,3,4,5},
{4,1},
{3,1,4},
{1,2},
{5,1},
{2,1,4,5},
{5,1,2,4},
{4,1,2,5},
{5,1,4},
{3,1,2,5},
{4,1},
{3,1,5},
{3,2,4,5},
{4,3,5},
{1,2,5},
{5,1,2,3},
{3,2,5},
{4,1,2,3},
{4,1,5},
{4,1,3,5},
{5,1,3,4},
{5,2},
{3,1,4},
{3,2,5},
{1,2},
{4,1},
{1,4},
{1,2},
{2,4,5},
{4,2,3,5},
{5,1,2,4},
{5},
{5,2},
{4,5},
{4,2,5},
{2,1,3},
{1,3,4,5},
{2,1,3,4,5},
{2,1,3,4},
{1,2,3,4,5},
{4,1,2,3},
{5,2,3},
{1,2,3,5},
{2,1,3,4,5},
{1,3,5},
{2,1,5},
{4,1,3},
{2,4},
{4,1,2,3,5},
{2,1,3,5},
{2},
{4,1,3},
{5},
{3,2,5},
{4},
{2,4,5},
{4,3,5},
{3,2},
{4,1,2,5},
{4,2,3},
{5,2,3},
{4,2,5},
{5,1,3,4},
{5,1,2,3,4},
{1,3,4},
{4},
{2,1,3,5},
{5,1,2,3,4},
{4,3},
{1,2,4},
{1,5},
{3,1,2,5},
{4,2,5},
{2,4},
{4,1},
{3,4},
{3,2},
{5,2,3},
{1,2,4,5},
{2,1,3,4},
{5},
{4,3,5},
{4,1,2,3},
{1,2,3},
{3,2,4},
{5,1,4},
{3,1,2,4},
{1,3,4,5},
{3,1,4,5},
{4,2,3,5},
{4,1,5},
{1,2,3,5},
{4,2,3,5},
{2,1,3,4},
{1,2,4},
{2,1,3,5},
{3},
{4,2},
{1,3,4},
{1,2,3,4,5},
{2,1},
{4,1},
{5,1,2,3,4},
{2,4},
{4,1,2,3},
{5,1,3,4},
{4,1,3,5},
{5,1,2,3,4},
{1,3},
{1,2,3,4,5},
{2,3},
{4,2},
{4,1,2},
{1,3,4},
{4,2,3,5},
{2},
{5,3,4},
{5},
{1,3},
{1,4,5},
{4,1,3},
{3,2,4},
{2,4,5},
{5,1,2},
{4,1,5},
{2,3,4,5},
{2,1,4,5},
{4,2,3},
{3,1,2,4},
{2,3,4},
{5,2,3},
{4,1,2},
{2,1,4,5},
{1,5},
{2,1,3,4,5},
{5,1,2,4},
{4,5},
{2,4,5},
{4,5},
{3,2,5},
{5,2,3},
{1,3,4,5},
{5,2,4},
{4,2,5},
{2,3},
{2,5},
{4,1},
{1,4,5},
{4,5},
{1,2,4,5},
{5,1,2,4},
{1,4},
{2,4,5},
{5,1,3,4},
{1,2,4,5},
{1,2,4,5},
{1,5},
{3},
{4,2},
{4,3},
{1,3},
{3,1,4,5},
{4,1,2},
{2,1,4},
{1,3}];
earliest_start=[1036,533,636,675,733,898,258,241,396,958,391,542,654,669,802,1252,18,1318,840,525,724,371,910,216,1244,569,676,1141,335,461,134,683,1315,251,1268,924,967,1074,119,734,597,639,1208,1339,1334,1008,512,131,1335,295,1038,1217,371,1091,596,665,966,420,774,163,221,459,1248,1278,823,1050,569,402,743,1221,284,286,1199,105,1270,85,505,913,224,235,56,545,1149,40,766,260,312,224,998,603,1301,547,300,1299,513,138,734,1273,516,284,439,110,730,114,10,751,18,265,1163,511,160,52,195,538,106,1019,652,1207,511,562,737,344,747,140,1262,1080,1329,1242,935,1132,694,574,396,1283,1138,1289,1157,1035,30,15,242,46,404,486,442,1248,352,1104,1192,836,828,869,762,1296,890,94,705,589,194,272,765,118,673,30,1160,928,999,255,742,159,1205,960,1177,495,320,691,1283,260,1041,13,728,224,50,98,304,1168,1155,443,393,1044,583,567,840,1100,593,124,716,373,669,856,249,97,361,1032,974,1211,1034,266,975,198,153,445,891,180,887,540,68,574,1069,1335,1116,555,1205,1041,919,637,119,76,1245,196,1317,910,934,184,1107,631,1205,360,467,436,133,888,810,194,890,138,1018,660,213,52,56,141,646,677,1083,1037,235,663,113,336,1091,957,364,779,223,586,854,707,416,256,678,1050,106,633,1201,227,1087,1010,150,780,961,802,1206,1192,140,1175,263,256,444,70,396,541,246,130,687,519,523,31,1313,304,627,311,243,1299,716,348,35,13,818,855,1292,567,513,676,718,289,1093,514,638,390,322,597,263,346,1203,136,803,1319,1288,682,1046,1055,1040,1188,152,649,558,1249,475,1135,1140,250,780,931,120,1171,28,913,755,397,768,9,736,922,1325,30,48,1240,96,580,887,58,67,136,1151,236,870,667,524,68,1074,1186,38,846,593,72,1159,674,225,31,108,1233,564,891,1257,1037,319,117,1206,121,601,661,1153,1238,247,1082,182,644,1122,1227,301,703,389,686,666,924,1313,1233,329,1253,213,716,1014,64,471,997,837,519,221,113,1259,752,804,402,810,412,33,143,599,853,1233,514,894,340,1073,747,843,1220,224,332,1067,429,1131,1296,1250,1227,990,1088,767,592,244,1005,422,1009,1310,892,1242,1330,1219,254,890,1169,633,818,19,1041,1165,673,334,1066,153,959,295,1231,388,830,963,851,494,926,765,288,718,6,609,227,92,1228,373,180,848,856,1,1312,785,1240,1138,313,1276,208];
latest_end=[1040,537,659,703,741,911,264,247,405,980,409,560,670,686,816,1257,31,1351,869,568,731,383,924,223,1276,593,690,1163,340,468,142,685,1322,262,1278,957,973,1083,153,743,604,641,1209,1343,1352,1022,532,157,1345,322,1081,1231,380,1097,617,671,981,423,800,170,234,478,1278,1314,838,1088,593,405,751,1242,298,294,1233,114,1275,94,547,931,241,240,69,559,1197,48,772,269,345,231,1021,606,1314,551,309,1322,514,157,741,1274,540,287,440,121,731,124,53,759,47,276,1164,519,162,71,221,567,107,1024,682,1231,527,583,740,382,748,149,1281,1100,1362,1246,938,1143,703,619,397,1303,1149,1312,1166,1041,45,31,260,60,421,514,445,1259,358,1124,1215,879,829,895,784,1321,894,98,721,606,202,279,796,128,678,35,1174,932,1011,262,756,173,1235,971,1180,520,326,699,1288,265,1047,55,742,228,60,105,319,1177,1169,451,403,1052,584,590,881,1105,596,129,727,379,695,872,274,102,366,1041,976,1232,1053,269,999,220,182,456,900,188,914,555,75,577,1090,1348,1126,577,1213,1048,923,648,147,86,1265,222,1330,914,950,200,1117,656,1212,376,468,446,137,901,818,230,894,157,1031,682,225,71,81,149,657,706,1120,1043,253,670,149,345,1104,976,388,783,232,604,888,709,417,271,679,1053,128,650,1203,244,1090,1048,170,801,988,821,1220,1197,151,1194,273,266,453,77,409,547,264,146,706,529,557,46,1340,311,675,337,259,1310,727,361,49,23,826,867,1323,597,534,694,720,300,1102,528,647,399,342,637,286,370,1226,148,825,1331,1319,690,1057,1092,1043,1203,179,666,562,1270,514,1139,1149,264,786,935,124,1188,74,937,760,399,797,18,746,935,1362,55,65,1259,109,589,895,84,87,149,1172,237,881,714,550,81,1080,1202,48,852,623,101,1179,678,240,57,139,1243,596,930,1269,1052,331,123,1231,133,611,670,1162,1252,258,1093,189,658,1140,1234,338,706,392,693,675,929,1322,1235,345,1261,219,719,1030,82,513,1032,884,532,232,126,1264,754,810,419,847,450,38,181,604,883,1237,522,909,345,1084,762,855,1257,237,343,1075,456,1147,1310,1257,1241,1027,1098,783,634,278,1025,439,1015,1333,916,1248,1339,1233,282,898,1173,665,860,22,1043,1173,686,341,1067,161,965,319,1236,394,879,987,856,498,955,767,292,725,40,620,243,107,1233,393,187,854,886,8,1341,794,1276,1147,359,1286,246];
min_time=[1,3,6,8,3,4,2,2,5,5,8,8,5,7,4,2,3,9,8,9,5,10,10,4,9,10,9,5,2,5,7,1,2,5,3,7,3,2,10,6,4,2,1,4,9,7,7,6,5,9,10,6,4,5,5,2,4,2,9,3,5,7,10,10,8,8,6,1,5,7,9,2,10,2,5,4,10,6,6,3,3,4,10,4,6,2,7,7,10,2,3,1,3,7,1,8,2,1,6,1,1,7,1,9,10,8,6,3,1,2,2,9,6,6,1,2,7,7,5,7,1,10,1,3,5,9,9,4,1,8,2,10,1,5,3,7,3,2,5,9,6,5,6,9,1,5,5,8,7,10,1,6,7,9,1,2,6,9,4,2,9,3,2,4,10,3,8,2,3,4,9,6,2,6,2,6,4,3,3,10,4,2,8,2,8,7,4,2,4,2,1,5,9,4,1,4,4,3,9,8,7,4,5,3,1,5,4,1,8,5,9,3,6,4,8,8,5,1,6,4,9,6,8,2,3,5,8,9,6,8,3,1,5,5,3,10,7,5,1,3,3,3,4,10,3,8,9,5,6,4,9,4,8,6,10,2,6,4,10,6,8,5,6,1,2,9,9,1,1,9,1,1,10,4,1,6,2,9,10,5,6,4,4,3,9,10,3,10,6,2,4,4,5,5,5,9,8,4,8,5,10,9,4,8,3,9,4,4,5,4,10,8,5,6,1,5,2,3,2,3,6,10,5,9,5,7,6,5,9,3,9,9,1,5,6,8,1,7,10,1,6,10,5,3,3,6,10,10,5,1,8,6,3,5,10,10,4,5,3,6,4,10,6,3,6,1,8,10,10,3,5,5,3,2,7,7,6,3,7,9,8,6,10,9,6,4,6,6,6,7,4,6,4,5,7,7,4,3,7,2,9,1,1,2,6,3,3,1,9,3,5,1,9,5,9,9,10,8,7,3,5,2,5,4,10,9,2,9,5,10,3,3,7,5,10,8,6,9,3,3,2,6,8,3,2,3,8,10,6,9,8,7,6,5,8,8,6,7,3,7,2,4,7,9,1,2,5,4,5,1,3,2,5,5,2,10,5,2,2,8,1,2,4,7,3,7,7,2,8,3,2,9,6,6,2,8,9,10,3,10];
max_time=[10,10,10,10,10,10,10,10,10,10,10,10,10,10,10,10,10,10,10,10,10,10,10,10,10,10,10,10,10,10,10,10,10,10,10,10,10,10,10,10,10,10,10,10,10,10,10,10,10,10,10,10,10,10,10,10,10,10,10,10,10,10,10,10,10,10,10,10,10,10,10,10,10,10,10,10,10,10,10,10,10,10,10,10,10,10,10,10,10,10,10,10,10,10,10,10,10,10,10,10,10,10,10,10,10,10,10,10,10,10,10,10,10,10,10,10,10,10,10,10,10,10,10,10,10,10,10,10,10,10,10,10,10,10,10,10,10,10,10,10,10,10,10,10,10,10,10,10,10,10,10,10,10,10,10,10,10,10,10,10,10,10,10,10,10,10,10,10,10,10,10,10,10,10,10,10,10,10,10,10,10,10,10,10,10,10,10,10,10,10,10,10,10,10,10,10,10,10,10,10,10,10,10,10,10,10,10,10,10,10,10,10,10,10,10,10,10,10,10,10,10,10,10,10,10,10,10,10,10,10,10,10,10,10,10,10,10,10,10,10,10,10,10,10,10,10,10,10,10,10,10,10,10,10,10,10,10,10,10,10,10,10,10,10,10,10,10,10,10,10,10,10,10,10,10,10,10,10,10,10,10,10,10,10,10,10,10,10,10,10,10,10,10,10,10,10,10,10,10,10,10,10,10,10,10,10,10,10,10,10,10,10,10,10,10,10,10,10,10,10,10,10,10,10,10,10,10,10,10,10,10,10,10,10,10,10,10,10,10,10,10,10,10,10,10,10,10,10,10,10,10,10,10,10,10,10,10,10,10,10,10,10,10,10,10,10,10,10,10,10,10,10,10,10,10,10,10,10,10,10,10,10,10,10,10,10,10,10,10,10,10,10,10,10,10,10,10,10,10,10,10,10,10,10,10,10,10,10,10,10,10,10,10,10,10,10,10,10,10,10,10,10,10,10,10,10,10,10,10,10,10,10,10,10,10,10,10,10,10,10,10,10,10,10,10,10,10,10,10,10,10,10,10,10,10,10,10,10,10,10,10,10,10,10,10,10,10,10,10,10,10,10,10,10,10,10,10,10,10,10,10,10,10,10,10,10,10,10,10,10,10,10,10,10,10,10,10,10,10,10];
size=[2,5,2,2,5,2,5,3,1,1,2,4,5,5,1,1,4,2,4,1,3,2,5,1,5,4,2,5,3,3,1,4,3,4,4,1,3,5,3,4,1,4,3,4,3,3,4,5,5,3,3,1,1,5,4,5,3,2,5,5,2,5,4,1,1,3,1,5,2,4,4,5,1,5,5,1,5,4,2,2,5,5,4,5,5,4,2,5,4,2,1,1,2,5,3,4,4,4,1,4,5,5,4,1,3,3,5,3,1,3,2,2,2,5,2,1,2,5,2,1,2,1,3,2,1,4,1,2,5,5,1,3,2,5,3,2,2,4,2,5,4,1,2,2,4,4,2,1,3,4,4,1,3,4,1,3,2,3,2,5,4,2,4,4,3,5,1,3,1,5,5,4,1,5,3,1,2,4,3,1,1,1,5,2,4,2,1,4,2,5,3,1,1,5,2,2,2,5,2,3,4,1,5,2,5,4,4,4,1,4,2,5,5,5,5,4,1,3,5,1,1,5,2,2,5,5,1,4,1,2,3,1,1,2,4,1,3,1,2,1,1,5,3,1,5,1,1,1,4,5,1,5,5,2,3,4,2,3,3,3,1,2,5,1,3,4,2,3,3,3,1,5,5,4,5,2,5,5,1,2,5,2,5,5,5,2,5,1,5,1,3,2,2,3,5,4,5,4,4,3,2,5,5,1,5,3,5,1,3,1,5,3,2,2,4,4,2,3,4,1,4,4,1,2,5,1,2,1,2,3,1,1,3,5,1,2,2,1,1,3,2,4,1,4,5,2,2,3,3,5,1,3,5,5,4,1,3,4,3,2,5,1,5,5,5,5,2,5,5,2,1,4,2,5,2,2,5,2,3,2,2,3,5,5,3,2,3,4,5,1,1,1,5,1,2,4,2,2,4,3,1,4,5,1,2,1,4,1,1,1,2,5,1,2,1,3,5,5,3,4,3,5,1,5,1,1,3,2,1,2,2,2,2,5,5,4,2,4,4,5,5,5,4,2,5,4,1,2,4,4,1,1,2,2,2,4,2,3,4,5,5,2,3,4,5,5,1,3,4,3,2,5,2,2,1,1,5,1,1,3,1,5,5,1,4,4,4,5,4,5,2,5,1,3,3,1,2,2,3,4];
attribute=[1,1,1,2,1,1,1,1,2,2,1,1,2,1,2,2,2,1,2,2,1,2,1,1,1,1,2,2,2,2,1,2,2,2,1,2,2,2,2,1,2,2,1,1,1,1,1,1,2,1,1,2,1,1,2,2,2,2,1,2,1,2,2,1,2,2,1,1,1,2,2,1,2,1,2,2,2,2,2,1,2,1,1,2,2,1,1,2,1,2,1,1,1,2,1,1,2,1,2,1,2,1,1,2,1,2,1,2,2,2,1,2,1,2,2,1,1,2,1,1,1,1,1,2,1,2,1,2,2,2,1,1,1,2,2,2,2,2,2,2,1,1,1,2,2,1,1,1,2,1,2,1,1,1,2,1,1,1,1,2,1,1,2,1,1,1,1,2,1,1,1,1,2,1,2,1,1,1,2,2,2,2,2,1,1,1,1,1,1,1,1,1,1,2,1,2,2,1,2,1,2,2,2,1,1,2,2,1,2,2,2,1,1,1,1,1,1,1,1,1,2,1,2,1,1,2,1,1,1,2,1,1,2,2,2,2,1,1,2,2,1,1,1,1,1,2,1,2,1,2,2,1,2,1,2,1,2,2,1,1,1,1,2,1,2,2,2,2,1,2,1,2,2,2,2,2,2,1,1,2,2,2,1,2,2,2,2,2,1,1,1,2,2,1,2,2,2,1,2,2,1,2,2,2,1,1,1,1,1,1,2,2,1,1,2,2,1,2,2,1,2,2,2,2,1,1,2,1,2,1,1,1,2,2,2,1,2,2,1,2,2,1,2,1,2,2,1,2,2,2,2,2,1,1,1,2,2,1,1,2,1,2,2,1,2,1,2,2,2,2,1,2,2,2,1,1,2,2,2,2,2,2,2,2,1,2,1,1,2,2,2,1,2,2,1,2,2,2,2,2,2,1,2,1,2,1,1,1,1,2,2,2,2,1,1,1,2,2,2,2,1,1,1,1,2,1,1,1,1,2,1,2,1,2,2,1,1,2,1,1,2,2,2,1,1,2,2,2,1,2,1,1,2,1,1,1,2,1,2,1,2,2,2,2,1,1,1,1,1,1,1,2,2,2,2,2,2,1,2,1,2,2,2,1,1,1,1,2,2,2,2,2,2,2,2,1,2,1,1,2];

upper_bound_integer_objective=2018370683;
mult_factor_total_runtime=752001;
mult_factor_finished_toolate=1501;
mult_factor_total_setuptimes=0;
mult_factor_total_setupcosts=1;
running_time_bound=2683;
min_duration=1;
max_duration=10;
max_setup_time=2;
max_setup_cost=3;
